NAME : grid
TYPE : TSP
DIMENSION : 50
EDGE_WEIGHT_TYPE : EUC_2D
NODE_COORD_SECTION
1 276901 640944
2 250172 1158
3 713841 39841
4 982793 392344
5 886032 534907
6 792191 563493
7 86589 382079
8 482726 740597
9 135140 292964
10 55822 775275
11 247018 203979
12 980034 654930
13 578036 519888
14 766932 728552
15 449638 712187
16 117281 986704
17 534180 203979
18 636805 643104
19 36202 231830
20 152707 6146
21 242520 649062
22 47375 839427
23 913229 402657
24 247018 475415
25 372620 875438
26 633995 555036
27 858729 122030
28 534180 475415
29 802745 453996
30 100846 891222
31 854527 989627
32 135140 558608
33 436 434783
34 938492 585733
35 499184 96463
36 117041 364193
37 94637 356591
38 421543 88449
39 962278 536794
40 461908 882885
41 466935 965142
42 437125 982816
43 833058 291442
44 601191 914191
45 374310 931950
46 54354 282577
47 482836 21851
48 367764 558608
49 74567 824926
50 869452 690410
EOF
